c instance by G2
c solution = 0100001100010101101100110
c Known solution cost is 1321 
p cnf 25 30
w 55 70 51 36 2 47 88 76 30 83 35 60 84 9 48 55 75 37 97 93 69 66 10 18 27
15 7 10 0
2 3 -8 0
18 22 -6 0
-14 -11 -17 0
-21 -15 13 0
18 -3 -13 0
25 22 -18 0
1 14 6 0
-14 -15 -24 0
-13 4 9 0
23 25 -19 0
-16 -12 20 0
-19 3 16 0
-4 -2 1 0
11 -5 3 0
-1 11 6 0
15 6 -21 0
-23 -3 -14 0
10 -17 8 0
-19 8 -10 0
-12 -16 -9 0
13 -21 7 0
24 -7 3 0
18 19 15 0
9 17 4 0
3 -24 -22 0
12 -19 21 0
18 -12 16 0
18 21 -10 0
-19 -25 1 0
